NAME          ClpDefau  FREE
ROWS
 N  OBJROW
 L  ZMUNI1_PCT
 L  ZMUNI2_PCT
 L  ZMUNI3_PCT
 L  ZMUNI4_PCT
 L  ZMUNI5_PCT
 L  ZMUNI6_PCT
 L  ZMUNI7_PCT
 L  ZMUNI8_PCT
 L  ZMUNI9_PCT
COLUMNS
    QMUNI1 OBJROW 1.          
    QMUNI1 ZMUNI1_PCT 28431.39172 
    QMUNI1 ZMUNI2_PCT 2271.55685  
    QMUNI1 ZMUNI3_PCT 4819.77463  
    QMUNI1 ZMUNI4_PCT 3560.87685  
    QMUNI1 ZMUNI5_PCT 825.54817   
    QMUNI1 ZMUNI6_PCT 1007.62845  
    QMUNI1 ZMUNI7_PCT 2317.3332   
    QMUNI1 ZMUNI8_PCT 2010.0594   
    QMUNI1 ZMUNI9_PCT 1205.2536   
    QMUNI2 OBJROW 1.          
    QMUNI2 ZMUNI1_PCT 2368.28327  
    QMUNI2 ZMUNI2_PCT 33310.50873 
    QMUNI2 ZMUNI3_PCT 3195.19043  
    QMUNI2 ZMUNI4_PCT 3228.99819  
    QMUNI2 ZMUNI5_PCT 814.1756    
    QMUNI2 ZMUNI6_PCT 926.47076   
    QMUNI2 ZMUNI7_PCT 2131.5574   
    QMUNI2 ZMUNI8_PCT 2466.2972   
    QMUNI2 ZMUNI9_PCT 2520.56122  
    QMUNI3 OBJROW 1.          
    QMUNI3 ZMUNI1_PCT 5026.96037  
    QMUNI3 ZMUNI2_PCT 3314.25667  
    QMUNI3 ZMUNI3_PCT 30032.06253 
    QMUNI3 ZMUNI4_PCT 5776.54839  
    QMUNI3 ZMUNI5_PCT 1122.71309  
    QMUNI3 ZMUNI6_PCT 1291.32271  
    QMUNI3 ZMUNI7_PCT 2536.869    
    QMUNI3 ZMUNI8_PCT 2468.0138   
    QMUNI3 ZMUNI9_PCT 1753.52097  
    QMUNI4 OBJROW 1.          
    QMUNI4 ZMUNI1_PCT 3732.15676  
    QMUNI4 ZMUNI2_PCT 3374.38583  
    QMUNI4 ZMUNI3_PCT 5957.93724  
    QMUNI4 ZMUNI4_PCT 101334.90563
    QMUNI4 ZMUNI5_PCT 541.37706   
    QMUNI4 ZMUNI6_PCT 660.33602   
    QMUNI4 ZMUNI7_PCT 1665.6875   
    QMUNI4 ZMUNI8_PCT 1676.941    
    QMUNI4 ZMUNI9_PCT 1224.04098  
    QMUNI5 OBJROW 1.          
    QMUNI5 ZMUNI1_PCT 545.57324   
    QMUNI5 ZMUNI2_PCT 424.52812   
    QMUNI5 ZMUNI3_PCT 508.11768   
    QMUNI5 ZMUNI4_PCT 441.26511   
    QMUNI5 ZMUNI5_PCT 31445.40786 
    QMUNI5 ZMUNI6_PCT 3051.36443  
    QMUNI5 ZMUNI7_PCT 717.6399    
    QMUNI5 ZMUNI8_PCT 609.8748    
    QMUNI5 ZMUNI9_PCT 575.54245   
    QMUNI6 OBJROW 1.          
    QMUNI6 ZMUNI1_PCT 666.88061   
    QMUNI6 ZMUNI2_PCT 444.60296   
    QMUNI6 ZMUNI3_PCT 577.35443   
    QMUNI6 ZMUNI4_PCT 486.75537   
    QMUNI6 ZMUNI5_PCT 3240.68069  
    QMUNI6 ZMUNI6_PCT 30784.77383 
    QMUNI6 ZMUNI7_PCT 853.5385    
    QMUNI6 ZMUNI8_PCT 624.1799    
    QMUNI6 ZMUNI9_PCT 546.64612   
    QMUNI7 OBJROW 1.          
    QMUNI7 ZMUNI1_PCT 2360.32009  
    QMUNI7 ZMUNI2_PCT 1621.81854  
    QMUNI7 ZMUNI3_PCT 2152.2522   
    QMUNI7 ZMUNI4_PCT 1724.91074  
    QMUNI7 ZMUNI5_PCT 1483.53576  
    QMUNI7 ZMUNI6_PCT 1717.51976  
    QMUNI7 ZMUNI7_PCT 27880.0964  
    QMUNI7 ZMUNI8_PCT 3771.019    
    QMUNI7 ZMUNI9_PCT 2199.26834  
    QMUNI8 OBJROW 1.          
    QMUNI8 ZMUNI1_PCT 1402.90261  
    QMUNI8 ZMUNI2_PCT 1210.11734  
    QMUNI8 ZMUNI3_PCT 1424.64638  
    QMUNI8 ZMUNI4_PCT 1150.75112  
    QMUNI8 ZMUNI5_PCT 421.69094   
    QMUNI8 ZMUNI6_PCT 505.41163   
    QMUNI8 ZMUNI7_PCT 2462.8639   
    QMUNI8 ZMUNI8_PCT 25807.4761  
    QMUNI8 ZMUNI9_PCT 1499.08066  
    QMUNI9 OBJROW 1.          
    QMUNI9 ZMUNI1_PCT 810.95696   
    QMUNI9 ZMUNI2_PCT 1059.53216  
    QMUNI9 ZMUNI3_PCT 902.65274   
    QMUNI9 ZMUNI4_PCT 798.98834   
    QMUNI9 ZMUNI5_PCT 388.52691   
    QMUNI9 ZMUNI6_PCT 423.15722   
    QMUNI9 ZMUNI7_PCT 923.9197    
    QMUNI9 ZMUNI8_PCT 1404.5716   
    QMUNI9 ZMUNI9_PCT 24250.26894 
RHS
    RHS ZMUNI1_PCT 3.2178337453
    RHS ZMUNI2_PCT 3.8575146388
    RHS ZMUNI3_PCT 4.4213194534
    RHS ZMUNI4_PCT 0.2792768901
    RHS ZMUNI5_PCT 4.2991464508
    RHS ZMUNI6_PCT 4.3407221699
    RHS ZMUNI7_PCT 9.365489946 
    RHS ZMUNI8_PCT 9.0955298663
    RHS ZMUNI9_PCT 7.7144252792
BOUNDS
 LO BOUND QMUNI1 -0.00127494 
 UP BOUND QMUNI1      1.1e+10
 LO BOUND QMUNI2 -0.000918963
 UP BOUND QMUNI2      1.1e+10
 LO BOUND QMUNI3 -0.000992231
 UP BOUND QMUNI3      1.1e+10
 LO BOUND QMUNI4 -0.000343354
 UP BOUND QMUNI4      1.1e+10
 LO BOUND QMUNI5 -0.000897123
 UP BOUND QMUNI5      1.1e+10
 LO BOUND QMUNI6 -0.001075976
 UP BOUND QMUNI6      1.1e+10
 LO BOUND QMUNI7 -0.000739116
 UP BOUND QMUNI7      1.1e+10
 LO BOUND QMUNI8 -0.000816979
 UP BOUND QMUNI8      1.1e+10
 LO BOUND QMUNI9 -0.00094541 
 UP BOUND QMUNI9      1.1e+10
ENDATA
